c 44_3_checker_5cl.cnf
c
c field = 44
c formula set type = 3_checker_5cl
c
p cnf 5 12
80 
82 
84 
-89 
-78 
81 
83 
85 
-88 
-79 
82 
84 
88 
-81 
-78 
83 
85 
89 
-80 
-79 
26 
56 
116 
-147 
-176 
27 
57 
117 
-146 
-177 
56 
116 
146 
-27 
-176 
57 
117 
147 
-26 
-177 
58 
114 
142 
-171 
-198 
59 
115 
143 
-170 
-199 
114 
142 
170 
-59 
-198 
115 
143 
171 
-58 
-199 
